1283666
82,24,15,106,93,80,1,50,83,58,45,28,51,44,0,4,34,97,100,81,33,89,23,108,9,65,76,8,36,25,40,37,71,56,74,85,26,68,69,30,13,38,46,70,98,75,17,77,32,107,105,59,41,92,12,67,39,54,27,7,35,11,64,87,6,49,18,95,72,61,86,104,101,99,20,47,79,16,52,21,57,53,103,96,90,88,10,48,63,14,22,78,66,3,91,73,55,102,29,5,60,94,31,42,84,43,19,62,2
